NAME 
OBJSENSE MAX
ROWS
 N  OBJ
 L  packing[0]
 L  packing[1]
 L  packing[2]
 L  packing[3]
 L  packing[4]
 L  packing[5]
 L  packing[6]
 L  packing[7]
 L  packing[8]
 L  packing[9]
 L  packing[10]
 L  packing[11]
 L  packing[12]
 L  packing[13]
 L  packing[14]
 L  packing[15]
 L  packing[16]
 L  packing[17]
 L  packing[18]
 L  packing[19]
 L  packing[20]
 L  packing[21]
 L  packing[22]
 L  packing[23]
 L  packing[24]
 L  packing[25]
 L  packing[26]
 L  packing[27]
 L  packing[28]
 L  packing[29]
 L  packing[30]
 L  packing[31]
 L  packing[32]
 L  packing[33]
 L  packing[34]
 L  packing[35]
 L  packing[36]
 L  packing[37]
 L  packing[38]
 L  packing[39]
 L  packing[40]
 L  packing[41]
 L  packing[42]
 L  packing[43]
 L  packing[44]
 L  packing[45]
 L  packing[46]
 L  packing[47]
 L  packing[48]
 L  packing[49]
 L  R57     
COLUMNS
    MARKER    'MARKER'                 'INTORG'
    x[1]      OBJ       70
    x[1]      packing[1]  101
    x[1]      packing[2]  161
    x[1]      packing[3]  96
    x[1]      packing[5]  109
    x[1]      packing[6]  79
    x[1]      packing[7]  92
    x[1]      packing[8]  40
    x[1]      packing[9]  188
    x[1]      packing[10]  6
    x[1]      packing[12]  181
    x[1]      packing[13]  160
    x[1]      packing[14]  97
    x[1]      packing[15]  92
    x[1]      packing[16]  129
    x[1]      packing[17]  17
    x[1]      packing[18]  118
    x[1]      packing[19]  39
    x[1]      packing[21]  43
    x[1]      packing[23]  73
    x[1]      packing[24]  24
    x[1]      packing[26]  76
    x[1]      packing[27]  180
    x[1]      packing[29]  122
    x[1]      packing[30]  80
    x[1]      packing[31]  24
    x[1]      packing[32]  124
    x[1]      packing[34]  189
    x[1]      packing[35]  178
    x[1]      packing[36]  138
    x[1]      packing[37]  131
    x[1]      packing[38]  83
    x[1]      packing[40]  44
    x[1]      packing[41]  170
    x[1]      packing[43]  106
    x[1]      packing[44]  146
    x[1]      packing[46]  192
    x[1]      packing[47]  49
    x[1]      packing[48]  72
    x[1]      packing[49]  168
    x[2]      OBJ       135
    x[2]      packing[0]  155
    x[2]      packing[1]  182
    x[2]      packing[2]  97
    x[2]      packing[3]  179
    x[2]      packing[4]  135
    x[2]      packing[5]  165
    x[2]      packing[6]  198
    x[2]      packing[9]  103
    x[2]      packing[10]  185
    x[2]      packing[11]  150
    x[2]      packing[12]  186
    x[2]      packing[15]  164
    x[2]      packing[16]  170
    x[2]      packing[17]  10
    x[2]      packing[18]  43
    x[2]      packing[21]  175
    x[2]      packing[22]  139
    x[2]      packing[23]  26
    x[2]      packing[25]  146
    x[2]      packing[26]  17
    x[2]      packing[27]  59
    x[2]      packing[28]  40
    x[2]      packing[29]  147
    x[2]      packing[30]  155
    x[2]      packing[31]  99
    x[2]      packing[32]  19
    x[2]      packing[33]  142
    x[2]      packing[34]  69
    x[2]      packing[35]  34
    x[2]      packing[37]  49
    x[2]      packing[38]  40
    x[2]      packing[39]  76
    x[2]      packing[40]  2
    x[2]      packing[42]  30
    x[2]      packing[43]  100
    x[2]      packing[44]  106
    x[2]      packing[46]  142
    x[2]      packing[47]  32
    x[2]      packing[48]  64
    x[2]      packing[49]  89
    x[2]      R57       1
    x[3]      OBJ       52
    x[3]      packing[1]  40
    x[3]      packing[2]  9
    x[3]      packing[3]  141
    x[3]      packing[4]  123
    x[3]      packing[5]  128
    x[3]      packing[6]  144
    x[3]      packing[8]  15
    x[3]      packing[9]  119
    x[3]      packing[10]  119
    x[3]      packing[13]  39
    x[3]      packing[14]  185
    x[3]      packing[15]  38
    x[3]      packing[18]  120
    x[3]      packing[21]  176
    x[3]      packing[23]  155
    x[3]      packing[24]  17
    x[3]      packing[26]  169
    x[3]      packing[27]  110
    x[3]      packing[28]  82
    x[3]      packing[29]  119
    x[3]      packing[30]  8
    x[3]      packing[31]  172
    x[3]      packing[32]  87
    x[3]      packing[33]  187
    x[3]      packing[35]  4
    x[3]      packing[37]  30
    x[3]      packing[39]  166
    x[3]      packing[40]  188
    x[3]      packing[41]  120
    x[3]      packing[43]  1
    x[3]      packing[44]  142
    x[3]      packing[46]  195
    x[3]      packing[48]  174
    x[3]      packing[49]  86
    x[4]      OBJ       26
    x[4]      packing[0]  146
    x[4]      packing[1]  162
    x[4]      packing[2]  52
    x[4]      packing[3]  86
    x[4]      packing[4]  66
    x[4]      packing[5]  23
    x[4]      packing[6]  154
    x[4]      packing[7]  198
    x[4]      packing[9]  4
    x[4]      packing[10]  178
    x[4]      packing[12]  137
    x[4]      packing[13]  49
    x[4]      packing[15]  95
    x[4]      packing[16]  36
    x[4]      packing[17]  9
    x[4]      packing[18]  63
    x[4]      packing[19]  88
    x[4]      packing[20]  159
    x[4]      packing[22]  138
    x[4]      packing[23]  162
    x[4]      packing[24]  118
    x[4]      packing[27]  97
    x[4]      packing[30]  58
    x[4]      packing[33]  135
    x[4]      packing[34]  24
    x[4]      packing[35]  2
    x[4]      packing[36]  59
    x[4]      packing[38]  97
    x[4]      packing[39]  128
    x[4]      packing[40]  45
    x[4]      packing[41]  176
    x[4]      packing[42]  23
    x[4]      packing[43]  173
    x[4]      packing[44]  179
    x[4]      packing[45]  83
    x[4]      packing[46]  157
    x[4]      packing[49]  119
    x[5]      OBJ       44
    x[5]      packing[0]  13
    x[5]      packing[1]  144
    x[5]      packing[2]  27
    x[5]      packing[3]  124
    x[5]      packing[4]  102
    x[5]      packing[5]  136
    x[5]      packing[6]  14
    x[5]      packing[7]  167
    x[5]      packing[8]  45
    x[5]      packing[10]  12
    x[5]      packing[12]  94
    x[5]      packing[13]  33
    x[5]      packing[14]  131
    x[5]      packing[15]  162
    x[5]      packing[16]  31
    x[5]      packing[17]  45
    x[5]      packing[18]  141
    x[5]      packing[19]  141
    x[5]      packing[20]  103
    x[5]      packing[21]  154
    x[5]      packing[22]  173
    x[5]      packing[23]  42
    x[5]      packing[24]  162
    x[5]      packing[25]  102
    x[5]      packing[26]  188
    x[5]      packing[28]  112
    x[5]      packing[30]  145
    x[5]      packing[31]  30
    x[5]      packing[34]  121
    x[5]      packing[35]  4
    x[5]      packing[36]  159
    x[5]      packing[38]  193
    x[5]      packing[39]  30
    x[5]      packing[41]  63
    x[5]      packing[42]  179
    x[5]      packing[43]  86
    x[5]      packing[44]  150
    x[5]      packing[45]  33
    x[5]      packing[47]  145
    x[5]      packing[48]  3
    x[5]      packing[49]  4
    x[6]      OBJ       103
    x[6]      packing[0]  121
    x[6]      packing[1]  98
    x[6]      packing[3]  185
    x[6]      packing[5]  186
    x[6]      packing[6]  59
    x[6]      packing[7]  95
    x[6]      packing[9]  139
    x[6]      packing[10]  195
    x[6]      packing[11]  74
    x[6]      packing[12]  157
    x[6]      packing[17]  44
    x[6]      packing[18]  104
    x[6]      packing[19]  69
    x[6]      packing[20]  162
    x[6]      packing[21]  124
    x[6]      packing[22]  143
    x[6]      packing[23]  132
    x[6]      packing[25]  146
    x[6]      packing[26]  159
    x[6]      packing[27]  179
    x[6]      packing[28]  65
    x[6]      packing[29]  95
    x[6]      packing[32]  106
    x[6]      packing[34]  182
    x[6]      packing[35]  129
    x[6]      packing[36]  96
    x[6]      packing[37]  94
    x[6]      packing[38]  130
    x[6]      packing[39]  13
    x[6]      packing[40]  58
    x[6]      packing[43]  55
    x[6]      packing[45]  152
    x[6]      packing[46]  32
    x[6]      packing[47]  155
    x[6]      packing[48]  2
    x[6]      packing[49]  141
    x[7]      OBJ       135
    x[7]      packing[0]  149
    x[7]      packing[1]  107
    x[7]      packing[2]  138
    x[7]      packing[3]  163
    x[7]      packing[4]  135
    x[7]      packing[5]  174
    x[7]      packing[6]  4
    x[7]      packing[7]  136
    x[7]      packing[11]  145
    x[7]      packing[12]  66
    x[7]      packing[13]  176
    x[7]      packing[14]  111
    x[7]      packing[15]  87
    x[7]      packing[16]  13
    x[7]      packing[18]  26
    x[7]      packing[20]  129
    x[7]      packing[21]  147
    x[7]      packing[22]  97
    x[7]      packing[23]  96
    x[7]      packing[24]  135
    x[7]      packing[26]  73
    x[7]      packing[27]  69
    x[7]      packing[29]  153
    x[7]      packing[30]  43
    x[7]      packing[31]  111
    x[7]      packing[32]  165
    x[7]      packing[33]  13
    x[7]      packing[34]  98
    x[7]      packing[35]  52
    x[7]      packing[36]  93
    x[7]      packing[37]  173
    x[7]      packing[39]  185
    x[7]      packing[40]  63
    x[7]      packing[42]  187
    x[7]      packing[44]  46
    x[7]      packing[45]  18
    x[7]      packing[47]  166
    x[7]      packing[48]  195
    x[7]      packing[49]  112
    x[8]      OBJ       63
    x[8]      packing[1]  180
    x[8]      packing[2]  70
    x[8]      packing[4]  89
    x[8]      packing[5]  40
    x[8]      packing[6]  73
    x[8]      packing[7]  37
    x[8]      packing[8]  26
    x[8]      packing[9]  194
    x[8]      packing[10]  52
    x[8]      packing[11]  78
    x[8]      packing[13]  1
    x[8]      packing[14]  15
    x[8]      packing[15]  165
    x[8]      packing[16]  136
    x[8]      packing[17]  42
    x[8]      packing[18]  182
    x[8]      packing[19]  19
    x[8]      packing[22]  76
    x[8]      packing[23]  86
    x[8]      packing[24]  183
    x[8]      packing[26]  74
    x[8]      packing[28]  30
    x[8]      packing[30]  92
    x[8]      packing[31]  79
    x[8]      packing[32]  133
    x[8]      packing[33]  180
    x[8]      packing[34]  99
    x[8]      packing[35]  79
    x[8]      packing[36]  122
    x[8]      packing[37]  125
    x[8]      packing[38]  15
    x[8]      packing[39]  95
    x[8]      packing[40]  26
    x[8]      packing[41]  155
    x[8]      packing[42]  81
    x[8]      packing[43]  90
    x[8]      packing[44]  2
    x[8]      packing[45]  84
    x[8]      packing[46]  58
    x[8]      packing[47]  151
    x[8]      packing[48]  147
    x[8]      packing[49]  84
    x[9]      OBJ       57
    x[9]      packing[0]  169
    x[9]      packing[3]  106
    x[9]      packing[4]  61
    x[9]      packing[5]  189
    x[9]      packing[7]  112
    x[9]      packing[8]  15
    x[9]      packing[9]  180
    x[9]      packing[10]  77
    x[9]      packing[12]  108
    x[9]      packing[13]  157
    x[9]      packing[14]  59
    x[9]      packing[15]  155
    x[9]      packing[16]  166
    x[9]      packing[17]  65
    x[9]      packing[18]  59
    x[9]      packing[19]  137
    x[9]      packing[20]  89
    x[9]      packing[21]  43
    x[9]      packing[22]  24
    x[9]      packing[25]  131
    x[9]      packing[28]  96
    x[9]      packing[29]  106
    x[9]      packing[30]  73
    x[9]      packing[31]  4
    x[9]      packing[32]  168
    x[9]      packing[33]  126
    x[9]      packing[34]  77
    x[9]      packing[35]  199
    x[9]      packing[36]  91
    x[9]      packing[37]  194
    x[9]      packing[38]  117
    x[9]      packing[41]  40
    x[9]      packing[45]  31
    x[9]      packing[46]  102
    x[9]      packing[47]  89
    x[9]      packing[49]  57
    x[10]     OBJ       130
    x[10]     packing[1]  174
    x[10]     packing[3]  70
    x[10]     packing[4]  5
    x[10]     packing[5]  146
    x[10]     packing[8]  73
    x[10]     packing[9]  166
    x[10]     packing[10]  192
    x[10]     packing[11]  21
    x[10]     packing[12]  46
    x[10]     packing[13]  145
    x[10]     packing[14]  43
    x[10]     packing[15]  163
    x[10]     packing[16]  123
    x[10]     packing[17]  66
    x[10]     packing[18]  85
    x[10]     packing[19]  90
    x[10]     packing[20]  6
    x[10]     packing[22]  195
    x[10]     packing[24]  70
    x[10]     packing[25]  114
    x[10]     packing[26]  106
    x[10]     packing[27]  136
    x[10]     packing[28]  76
    x[10]     packing[29]  168
    x[10]     packing[30]  49
    x[10]     packing[31]  119
    x[10]     packing[32]  174
    x[10]     packing[33]  77
    x[10]     packing[34]  35
    x[10]     packing[35]  42
    x[10]     packing[36]  62
    x[10]     packing[40]  90
    x[10]     packing[41]  63
    x[10]     packing[43]  174
    x[10]     packing[44]  180
    x[10]     packing[45]  88
    x[10]     packing[46]  80
    x[10]     packing[47]  40
    x[10]     packing[48]  123
    x[10]     packing[49]  186
    x[10]     R57       1
    x[11]     OBJ       26
    x[11]     packing[3]  109
    x[11]     packing[4]  2
    x[11]     packing[5]  53
    x[11]     packing[6]  63
    x[11]     packing[8]  166
    x[11]     packing[9]  177
    x[11]     packing[11]  192
    x[11]     packing[12]  110
    x[11]     packing[14]  173
    x[11]     packing[15]  113
    x[11]     packing[16]  150
    x[11]     packing[17]  40
    x[11]     packing[18]  102
    x[11]     packing[19]  199
    x[11]     packing[20]  151
    x[11]     packing[21]  72
    x[11]     packing[22]  60
    x[11]     packing[23]  5
    x[11]     packing[24]  76
    x[11]     packing[25]  77
    x[11]     packing[26]  197
    x[11]     packing[27]  179
    x[11]     packing[28]  17
    x[11]     packing[29]  18
    x[11]     packing[30]  73
    x[11]     packing[31]  138
    x[11]     packing[32]  122
    x[11]     packing[33]  165
    x[11]     packing[35]  110
    x[11]     packing[36]  148
    x[11]     packing[37]  89
    x[11]     packing[38]  50
    x[11]     packing[39]  156
    x[11]     packing[40]  123
    x[11]     packing[41]  146
    x[11]     packing[44]  159
    x[11]     packing[47]  126
    x[11]     packing[48]  113
    x[12]     OBJ       152
    x[12]     packing[0]  33
    x[12]     packing[1]  15
    x[12]     packing[2]  29
    x[12]     packing[3]  37
    x[12]     packing[4]  190
    x[12]     packing[5]  185
    x[12]     packing[6]  100
    x[12]     packing[7]  197
    x[12]     packing[8]  95
    x[12]     packing[9]  85
    x[12]     packing[10]  190
    x[12]     packing[11]  152
    x[12]     packing[14]  112
    x[12]     packing[16]  129
    x[12]     packing[17]  48
    x[12]     packing[18]  85
    x[12]     packing[19]  80
    x[12]     packing[21]  139
    x[12]     packing[22]  168
    x[12]     packing[23]  173
    x[12]     packing[24]  33
    x[12]     packing[25]  152
    x[12]     packing[26]  173
    x[12]     packing[27]  93
    x[12]     packing[28]  75
    x[12]     packing[29]  28
    x[12]     packing[30]  6
    x[12]     packing[33]  163
    x[12]     packing[34]  71
    x[12]     packing[37]  103
    x[12]     packing[38]  71
    x[12]     packing[39]  143
    x[12]     packing[40]  87
    x[12]     packing[43]  23
    x[12]     packing[46]  57
    x[12]     packing[47]  140
    x[12]     packing[48]  138
    x[12]     packing[49]  150
    x[12]     R57       1
    x[13]     OBJ       48
    x[13]     packing[0]  171
    x[13]     packing[2]  50
    x[13]     packing[3]  142
    x[13]     packing[4]  108
    x[13]     packing[5]  43
    x[13]     packing[6]  158
    x[13]     packing[7]  102
    x[13]     packing[8]  165
    x[13]     packing[9]  21
    x[13]     packing[12]  41
    x[13]     packing[13]  95
    x[13]     packing[14]  57
    x[13]     packing[15]  196
    x[13]     packing[16]  61
    x[13]     packing[18]  158
    x[13]     packing[19]  162
    x[13]     packing[20]  31
    x[13]     packing[21]  59
    x[13]     packing[22]  163
    x[13]     packing[23]  98
    x[13]     packing[24]  87
    x[13]     packing[25]  130
    x[13]     packing[26]  12
    x[13]     packing[28]  89
    x[13]     packing[31]  171
    x[13]     packing[32]  145
    x[13]     packing[33]  129
    x[13]     packing[34]  38
    x[13]     packing[35]  30
    x[13]     packing[37]  102
    x[13]     packing[38]  34
    x[13]     packing[39]  94
    x[13]     packing[41]  134
    x[13]     packing[43]  118
    x[13]     packing[44]  126
    x[13]     packing[46]  175
    x[13]     packing[48]  172
    x[13]     packing[49]  195
    x[14]     OBJ       150
    x[14]     packing[0]  199
    x[14]     packing[1]  52
    x[14]     packing[2]  120
    x[14]     packing[3]  1
    x[14]     packing[5]  95
    x[14]     packing[7]  12
    x[14]     packing[8]  89
    x[14]     packing[9]  1
    x[14]     packing[10]  130
    x[14]     packing[11]  44
    x[14]     packing[13]  25
    x[14]     packing[14]  143
    x[14]     packing[15]  54
    x[14]     packing[17]  33
    x[14]     packing[18]  11
    x[14]     packing[20]  80
    x[14]     packing[22]  8
    x[14]     packing[23]  19
    x[14]     packing[25]  149
    x[14]     packing[26]  71
    x[14]     packing[27]  45
    x[14]     packing[28]  180
    x[14]     packing[29]  32
    x[14]     packing[30]  68
    x[14]     packing[31]  151
    x[14]     packing[32]  44
    x[14]     packing[33]  74
    x[14]     packing[35]  69
    x[14]     packing[39]  62
    x[14]     packing[40]  168
    x[14]     packing[42]  165
    x[14]     packing[44]  176
    x[14]     packing[45]  113
    x[14]     packing[46]  132
    x[14]     packing[47]  158
    x[14]     packing[49]  111
    x[14]     R57       1
    x[15]     OBJ       164
    x[15]     packing[0]  106
    x[15]     packing[1]  191
    x[15]     packing[2]  23
    x[15]     packing[3]  138
    x[15]     packing[4]  105
    x[15]     packing[5]  62
    x[15]     packing[6]  175
    x[15]     packing[7]  186
    x[15]     packing[8]  23
    x[15]     packing[10]  188
    x[15]     packing[12]  173
    x[15]     packing[13]  183
    x[15]     packing[14]  146
    x[15]     packing[16]  131
    x[15]     packing[18]  105
    x[15]     packing[19]  133
    x[15]     packing[20]  87
    x[15]     packing[21]  181
    x[15]     packing[22]  152
    x[15]     packing[23]  73
    x[15]     packing[24]  80
    x[15]     packing[25]  97
    x[15]     packing[27]  1
    x[15]     packing[28]  187
    x[15]     packing[29]  162
    x[15]     packing[30]  8
    x[15]     packing[31]  156
    x[15]     packing[32]  99
    x[15]     packing[33]  66
    x[15]     packing[36]  48
    x[15]     packing[37]  80
    x[15]     packing[38]  182
    x[15]     packing[39]  35
    x[15]     packing[40]  47
    x[15]     packing[41]  86
    x[15]     packing[43]  75
    x[15]     packing[44]  101
    x[15]     packing[46]  80
    x[15]     packing[47]  126
    x[15]     packing[48]  166
    x[15]     packing[49]  41
    x[15]     R57       1
    x[16]     OBJ       197
    x[16]     packing[0]  118
    x[16]     packing[1]  3
    x[16]     packing[2]  182
    x[16]     packing[3]  179
    x[16]     packing[5]  105
    x[16]     packing[8]  130
    x[16]     packing[9]  155
    x[16]     packing[10]  88
    x[16]     packing[11]  37
    x[16]     packing[13]  109
    x[16]     packing[14]  135
    x[16]     packing[15]  57
    x[16]     packing[16]  131
    x[16]     packing[17]  141
    x[16]     packing[18]  180
    x[16]     packing[20]  81
    x[16]     packing[21]  193
    x[16]     packing[22]  63
    x[16]     packing[23]  101
    x[16]     packing[24]  44
    x[16]     packing[26]  112
    x[16]     packing[27]  5
    x[16]     packing[28]  69
    x[16]     packing[29]  172
    x[16]     packing[31]  30
    x[16]     packing[32]  11
    x[16]     packing[33]  146
    x[16]     packing[34]  159
    x[16]     packing[35]  38
    x[16]     packing[36]  121
    x[16]     packing[37]  101
    x[16]     packing[38]  139
    x[16]     packing[39]  97
    x[16]     packing[41]  169
    x[16]     packing[42]  137
    x[16]     packing[43]  103
    x[16]     packing[44]  23
    x[16]     packing[45]  103
    x[16]     packing[46]  35
    x[16]     packing[47]  87
    x[16]     packing[48]  197
    x[16]     packing[49]  133
    x[17]     OBJ       129
    x[17]     packing[0]  53
    x[17]     packing[1]  192
    x[17]     packing[2]  31
    x[17]     packing[3]  50
    x[17]     packing[5]  20
    x[17]     packing[6]  192
    x[17]     packing[7]  152
    x[17]     packing[8]  135
    x[17]     packing[9]  22
    x[17]     packing[10]  84
    x[17]     packing[12]  2
    x[17]     packing[13]  172
    x[17]     packing[14]  156
    x[17]     packing[15]  101
    x[17]     packing[17]  72
    x[17]     packing[19]  162
    x[17]     packing[21]  187
    x[17]     packing[24]  97
    x[17]     packing[26]  16
    x[17]     packing[27]  46
    x[17]     packing[28]  89
    x[17]     packing[31]  115
    x[17]     packing[33]  191
    x[17]     packing[34]  89
    x[17]     packing[36]  150
    x[17]     packing[39]  99
    x[17]     packing[40]  62
    x[17]     packing[42]  10
    x[17]     packing[43]  183
    x[17]     packing[44]  40
    x[17]     packing[45]  78
    x[17]     packing[46]  166
    x[17]     packing[47]  88
    x[17]     packing[48]  195
    x[17]     packing[49]  117
    x[18]     OBJ       116
    x[18]     packing[2]  91
    x[18]     packing[3]  21
    x[18]     packing[4]  189
    x[18]     packing[5]  118
    x[18]     packing[6]  128
    x[18]     packing[7]  90
    x[18]     packing[10]  50
    x[18]     packing[12]  156
    x[18]     packing[13]  55
    x[18]     packing[14]  176
    x[18]     packing[15]  183
    x[18]     packing[17]  21
    x[18]     packing[18]  171
    x[18]     packing[19]  103
    x[18]     packing[20]  65
    x[18]     packing[21]  143
    x[18]     packing[22]  71
    x[18]     packing[23]  56
    x[18]     packing[24]  185
    x[18]     packing[27]  147
    x[18]     packing[28]  128
    x[18]     packing[29]  72
    x[18]     packing[30]  24
    x[18]     packing[31]  189
    x[18]     packing[33]  36
    x[18]     packing[34]  164
    x[18]     packing[35]  136
    x[18]     packing[37]  103
    x[18]     packing[38]  100
    x[18]     packing[40]  119
    x[18]     packing[42]  131
    x[18]     packing[43]  184
    x[18]     packing[44]  178
    x[18]     packing[45]  61
    x[18]     packing[46]  73
    x[18]     packing[47]  77
    x[19]     OBJ       64
    x[19]     packing[1]  150
    x[19]     packing[2]  88
    x[19]     packing[3]  128
    x[19]     packing[4]  101
    x[19]     packing[5]  93
    x[19]     packing[6]  171
    x[19]     packing[7]  138
    x[19]     packing[8]  86
    x[19]     packing[9]  73
    x[19]     packing[10]  162
    x[19]     packing[11]  57
    x[19]     packing[12]  65
    x[19]     packing[13]  46
    x[19]     packing[14]  33
    x[19]     packing[15]  143
    x[19]     packing[17]  174
    x[19]     packing[18]  114
    x[19]     packing[20]  40
    x[19]     packing[21]  68
    x[19]     packing[25]  44
    x[19]     packing[27]  121
    x[19]     packing[28]  121
    x[19]     packing[31]  115
    x[19]     packing[32]  14
    x[19]     packing[33]  163
    x[19]     packing[34]  144
    x[19]     packing[35]  140
    x[19]     packing[36]  14
    x[19]     packing[37]  138
    x[19]     packing[40]  76
    x[19]     packing[41]  58
    x[19]     packing[42]  74
    x[19]     packing[43]  112
    x[19]     packing[44]  13
    x[19]     packing[46]  113
    x[19]     packing[47]  123
    x[19]     packing[49]  44
    x[20]     OBJ       69
    x[20]     packing[1]  138
    x[20]     packing[2]  62
    x[20]     packing[3]  180
    x[20]     packing[4]  41
    x[20]     packing[6]  103
    x[20]     packing[7]  19
    x[20]     packing[8]  42
    x[20]     packing[9]  76
    x[20]     packing[10]  144
    x[20]     packing[12]  168
    x[20]     packing[13]  61
    x[20]     packing[15]  141
    x[20]     packing[16]  176
    x[20]     packing[17]  41
    x[20]     packing[18]  143
    x[20]     packing[19]  192
    x[20]     packing[21]  3
    x[20]     packing[22]  191
    x[20]     packing[23]  171
    x[20]     packing[24]  104
    x[20]     packing[27]  19
    x[20]     packing[28]  199
    x[20]     packing[29]  59
    x[20]     packing[30]  157
    x[20]     packing[31]  80
    x[20]     packing[32]  60
    x[20]     packing[34]  177
    x[20]     packing[36]  81
    x[20]     packing[37]  99
    x[20]     packing[38]  143
    x[20]     packing[40]  154
    x[20]     packing[41]  17
    x[20]     packing[42]  40
    x[20]     packing[43]  117
    x[20]     packing[44]  76
    x[20]     packing[45]  80
    x[20]     packing[46]  11
    x[20]     packing[47]  112
    x[20]     packing[48]  6
    x[20]     packing[49]  86
    MARKER    'MARKER'                 'INTEND'
RHS
    RHS1      packing[0]  717
    RHS1      packing[1]  965
    RHS1      packing[2]  615
    RHS1      packing[3]  1068
    RHS1      packing[4]  726
    RHS1      packing[5]  1035
    RHS1      packing[6]  908
    RHS1      packing[7]  867
    RHS1      packing[8]  573
    RHS1      packing[9]  852
    RHS1      packing[10]  1026
    RHS1      packing[11]  475
    RHS1      packing[12]  845
    RHS1      packing[13]  753
    RHS1      packing[14]  886
    RHS1      packing[15]  1055
    RHS1      packing[16]  791
    RHS1      packing[17]  434
    RHS1      packing[18]  1005
    RHS1      packing[19]  807
    RHS1      packing[20]  592
    RHS1      packing[21]  954
    RHS1      packing[22]  931
    RHS1      packing[23]  734
    RHS1      packing[24]  708
    RHS1      packing[25]  644
    RHS1      packing[26]  722
    RHS1      packing[27]  743
    RHS1      packing[28]  828
    RHS1      packing[29]  727
    RHS1      packing[30]  520
    RHS1      packing[31]  892
    RHS1      packing[32]  736
    RHS1      packing[33]  997
    RHS1      packing[34]  868
    RHS1      packing[35]  623
    RHS1      packing[36]  691
    RHS1      packing[37]  806
    RHS1      packing[38]  697
    RHS1      packing[39]  690
    RHS1      packing[40]  676
    RHS1      packing[41]  699
    RHS1      packing[42]  529
    RHS1      packing[43]  850
    RHS1      packing[44]  922
    RHS1      packing[45]  462
    RHS1      packing[46]  900
    RHS1      packing[47]  932
    RHS1      packing[48]  884
    RHS1      packing[49]  962
    RHS1      R57       4
BOUNDS
 BV BND1      x[1]    
 BV BND1      x[2]    
 BV BND1      x[3]    
 BV BND1      x[4]    
 BV BND1      x[5]    
 BV BND1      x[6]    
 BV BND1      x[7]    
 BV BND1      x[8]    
 BV BND1      x[9]    
 BV BND1      x[10]   
 BV BND1      x[11]   
 BV BND1      x[12]   
 BV BND1      x[13]   
 BV BND1      x[14]   
 BV BND1      x[15]   
 BV BND1      x[16]   
 BV BND1      x[17]   
 BV BND1      x[18]   
 BV BND1      x[19]   
 BV BND1      x[20]   
ENDATA
